(set-info :smt-lib-version 2.6)
(set-logic QF_NIA)
(set-info :source |
Generated by: Cristina Borralleras, Daniel Larraz, Albert Oliveras, Enric Rodriguez-Carbonell, Albert Rubio
Generated on: 2017-04-27
Generator: VeryMax
Application: Termination proving
Target solver: barcelogic
|)
(set-info :license "https://creativecommons.org/licenses/by/4.0/")
(set-info :category "industrial")
(set-info :status unsat)
(declare-fun Nl4main_a1 () Int)
(declare-fun Nl4main_b1 () Int)
(declare-fun lam0n0 () Int)
(declare-fun lam0n1 () Int)
(declare-fun lam0n2 () Int)
(declare-fun Nl4CT1 () Int)
(declare-fun lam1n0 () Int)
(declare-fun lam1n1 () Int)
(declare-fun lam1n2 () Int)
(declare-fun lam2n0 () Int)
(declare-fun lam2n1 () Int)
(declare-fun lam2n2 () Int)
(declare-fun lam3n0 () Int)
(declare-fun lam3n1 () Int)
(declare-fun lam3n2 () Int)
(declare-fun lam4n0 () Int)
(declare-fun lam4n1 () Int)
(declare-fun lam4n2 () Int)
(declare-fun lam5n0 () Int)
(declare-fun lam5n1 () Int)
(declare-fun lam5n2 () Int)
(declare-fun lam6n0 () Int)
(declare-fun lam6n1 () Int)
(declare-fun lam6n2 () Int)
(assert ( and ( <= ( - 10 ) Nl4main_a1 ) ( <= Nl4main_a1 10 ) ( <= ( - 10 ) Nl4main_b1 ) ( <= Nl4main_b1 10 ) ))
(assert ( or ( and ( >= lam0n0 0 ) ( >= lam0n1 0 ) ( >= lam0n2 0 ) ( > ( + ( * 1 lam0n0 ) ( * 6 lam0n1 ) ( * Nl4CT1 lam0n2 ) ( - 1 ) ) 0 ) ( = ( + ( * ( - 1 ) lam0n0 ) ( * Nl4main_a1 lam0n2 ) ) 0 ) ( = ( + ( * 1 lam0n0 ) ( * ( - 1 ) lam0n1 ) ( * Nl4main_b1 lam0n2 ) ) 0 ) ) ( and ( >= lam1n0 0 ) ( >= lam1n1 0 ) ( >= lam1n2 0 ) ( > ( + ( * 1 lam1n0 ) ( * 6 lam1n1 ) ( * Nl4CT1 lam1n2 ) ( - 1 ( + ( + Nl4CT1 ( * Nl4main_a1 1 ) ) ( * Nl4main_b1 7 ) ) ) ) 0 ) ( = ( + ( * ( - 1 ) lam1n0 ) ( * Nl4main_a1 lam1n2 ) ( - ( + 0 ( * Nl4main_a1 1 ) ) ) ) 0 ) ( = ( + ( * 1 lam1n0 ) ( * ( - 1 ) lam1n1 ) ( * Nl4main_b1 lam1n2 ) ( - ( + 0 ( * Nl4main_b1 1 ) ) ) ) 0 ) ) ))
(assert ( or ( and ( >= lam2n0 0 ) ( >= lam2n1 0 ) ( >= lam2n2 0 ) ( > ( + ( * 1 lam2n0 ) ( * ( - 5 ) lam2n1 ) ( * Nl4CT1 lam2n2 ) ( - 1 ) ) 0 ) ( = ( + ( * ( - 1 ) lam2n0 ) ( * Nl4main_a1 lam2n2 ) ) 0 ) ( = ( + ( * 1 lam2n0 ) ( * 1 lam2n1 ) ( * Nl4main_b1 lam2n2 ) ) 0 ) ) ( and ( >= lam3n0 0 ) ( >= lam3n1 0 ) ( >= lam3n2 0 ) ( > ( + ( * 1 lam3n0 ) ( * ( - 5 ) lam3n1 ) ( * Nl4CT1 lam3n2 ) ( - 1 ( + ( + Nl4CT1 ( * Nl4main_a1 1 ) ) ( * Nl4main_b1 2 ) ) ) ) 0 ) ( = ( + ( * ( - 1 ) lam3n0 ) ( * Nl4main_a1 lam3n2 ) ( - ( + 0 ( * Nl4main_a1 1 ) ) ) ) 0 ) ( = ( + ( * 1 lam3n0 ) ( * 1 lam3n1 ) ( * Nl4main_b1 lam3n2 ) ( - ( + 0 ( * Nl4main_b1 1 ) ) ) ) 0 ) ) ))
(assert ( or ( and ( >= lam4n0 0 ) ( >= lam4n1 0 ) ( >= lam4n2 0 ) ( > ( + ( * ( - 27 ) lam4n1 ) ( * Nl4CT1 lam4n2 ) ( - 1 ) ) 0 ) ( = ( + ( * 1 lam4n0 ) ( * 1 lam4n1 ) ( * Nl4main_a1 lam4n2 ) ) 0 ) ( = ( + ( * ( - 1 ) lam4n0 ) ( * Nl4main_b1 lam4n2 ) ) 0 ) ) ( and ( >= lam5n0 0 ) ( >= lam5n1 0 ) ( >= lam5n2 0 ) ( > ( + ( * ( - 27 ) lam5n1 ) ( * Nl4CT1 lam5n2 ) ( - 1 ( + ( + Nl4CT1 ( * Nl4main_a1 2 ) ) ( * Nl4main_b1 ( - 10 ) ) ) ) ) 0 ) ( = ( + ( * 1 lam5n0 ) ( * 1 lam5n1 ) ( * Nl4main_a1 lam5n2 ) ( - ( + 0 ( * Nl4main_a1 1 ) ) ) ) 0 ) ( = ( + ( * ( - 1 ) lam5n0 ) ( * Nl4main_b1 lam5n2 ) ( - ( + 0 ( * Nl4main_b1 1 ) ) ) ) 0 ) ) ))
(assert ( and ( >= lam6n0 0 ) ( > ( + ( * ( - 29 ) lam6n0 ) ( - 1 Nl4CT1 ) ) 0 ) ( = ( + ( * 1 lam6n1 ) ( - ( + 0 Nl4main_a1 ) ) ) 0 ) ( = ( + ( * 1 lam6n2 ) ( - ( + 0 Nl4main_b1 ) ) ) 0 ) ( = ( + ( * 1 lam6n0 ) ( * ( - 1 ) lam6n1 ) ) 0 ) ( = ( * ( - 1 ) lam6n2 ) 0 ) ))
(assert ( or ( and ( >= lam0n0 0 ) ( >= lam0n1 0 ) ( >= lam0n2 0 ) ( > ( + ( * 1 lam0n0 ) ( * 6 lam0n1 ) ( * Nl4CT1 lam0n2 ) ( - 1 ) ) 0 ) ( = ( + ( * ( - 1 ) lam0n0 ) ( * Nl4main_a1 lam0n2 ) ) 0 ) ( = ( + ( * 1 lam0n0 ) ( * ( - 1 ) lam0n1 ) ( * Nl4main_b1 lam0n2 ) ) 0 ) ) ( and ( >= lam2n0 0 ) ( >= lam2n1 0 ) ( >= lam2n2 0 ) ( > ( + ( * 1 lam2n0 ) ( * ( - 5 ) lam2n1 ) ( * Nl4CT1 lam2n2 ) ( - 1 ) ) 0 ) ( = ( + ( * ( - 1 ) lam2n0 ) ( * Nl4main_a1 lam2n2 ) ) 0 ) ( = ( + ( * 1 lam2n0 ) ( * 1 lam2n1 ) ( * Nl4main_b1 lam2n2 ) ) 0 ) ) ( and ( >= lam4n0 0 ) ( >= lam4n1 0 ) ( >= lam4n2 0 ) ( > ( + ( * ( - 27 ) lam4n1 ) ( * Nl4CT1 lam4n2 ) ( - 1 ) ) 0 ) ( = ( + ( * 1 lam4n0 ) ( * 1 lam4n1 ) ( * Nl4main_a1 lam4n2 ) ) 0 ) ( = ( + ( * ( - 1 ) lam4n0 ) ( * Nl4main_b1 lam4n2 ) ) 0 ) ) ))
(check-sat)
(exit)
